46 65 49 44 55 73 26 85 68 43 41 78 50 91 52 52 86 82 75 72 35 22 78 27 48 
52 65 58 63 46 66 72 95 42 29 73 36 77 35 47 25 80 81 87 62 41 40 54 40 77 
40 79 46 79 79 15 96 39 89 45 58 28 90 81 22 72 22 75 13 83 49 61 93 59 82 
64 28 39 34 82 94 82 82 50 88 88 45 53 14 74 47 93 76 33 43 22 59 49 88 76 
25 50 85 24 10 74 50 24 34 88 95 63 68 40 14 17 54 87 64 29 66 63 91 48 73 
668
28 22 43 45 93 38 51 14 63 84 65 38 19 45 63 44 41 26 51 41 30 68 65 44 51 
586
59 69 60 39 75 19 71 55 96 98 64 52 83 67 22 38 70 35 42 90 33 14 23 91 17 
691
18 94 73 24 17 73 77 70 41 87 58 59 54 10 50 93 74 18 90 97 96 76 27 13 85 
737
